(declare-const c_0 Real)
(declare-const c_1 Real)
(declare-const c_2 Real)
(declare-const c_3 Real)
(declare-const c_4 Real)
(declare-const c_5 Real)
(declare-const c_6 Real)
(declare-const c_7 Real)
(declare-const c_8 Real)
(declare-const c_9 Real)
(declare-const c_10 Real)
(declare-const c_11 Real)
(declare-const c_12 Real)
(declare-const c_13 Real)
(declare-const c_14 Real)
(declare-const s_0 Real)
(declare-const s_1 Real)
(declare-const s_2 Real)
(declare-const s_3 Real)
(declare-const s_4 Real)
(declare-const s_5 Real)
(declare-const s_6 Real)
(declare-const s_7 Real)
(declare-const s_8 Real)
(declare-const s_9 Real)
(declare-const s_10 Real)
(declare-const s_11 Real)
(declare-const s_12 Real)
(declare-const s_13 Real)
(declare-const s_14 Real)
(assert (forall ((x Real) (i Real) (m Real) (n Real) ) (=> (and (>= (+ (* 1024 1) (* 1 x ) ) 0) (>= (+ (* 1023 1) (* (- 1) x ) ) 0) (>= (+ (* 1024 1) (* 1 i ) ) 0) (>= (+ (* 1023 1) (* (- 1) i ) ) 0) (>= (+ (* 1024 1) (* 1 m ) ) 0) (>= (+ (* 1023 1) (* (- 1) m ) ) 0) (>= (+ (* 1024 1) (* 1 n ) ) 0) (>= (+ (* 1023 1) (* (- 1) n ) ) 0) ) (>= (+ (* 1 i s_1 ) (* 1 m s_2 ) (* 1 n s_3 ) (* 1 s_0 ) (* 1 s_4 x ) ) 0) )))
(assert (forall ((x Real) (i Real) (m Real) (n Real) ) (=> (and (>= (+ (* 1024 1) (* 1 x ) ) 0) (>= (+ (* 1023 1) (* (- 1) x ) ) 0) (>= (+ (* 1024 1) (* 1 i ) ) 0) (>= (+ (* 1023 1) (* (- 1) i ) ) 0) (>= (+ (* 1024 1) (* 1 m ) ) 0) (>= (+ (* 1023 1) (* (- 1) m ) ) 0) (>= (+ (* 1024 1) (* 1 n ) ) 0) (>= (+ (* 1023 1) (* (- 1) n ) ) 0) ) (>= (+ (* 1 c_0 ) (* 1 c_1 i ) (* 1 c_2 m ) (* 1 c_3 n ) (* 1 c_4 x ) ) 0) )))
(assert (forall ((x Real) (i Real) (m Real) (n Real) ) (=> (and (>= (+ (* (- 1) 1) (* 1 n ) (* (- 1) x ) ) 0) (>= (+ (* 1023 1) (* (- 1) n ) ) 0) (>= (+ (* 1023 1) (* (- 1) m ) ) 0) (>= (+ (* 1023 1) (* (- 1) x ) ) 0) (>= (+ (* 2047 1) (* (- 1) i ) (* 1 n ) ) 0) (>= (+ (* 1024 1) (* 1 n ) ) 0) (>= (+ (* 1024 1) (* 1 m ) ) 0) (>= (+ (* 1024 1) (* 1 i ) ) 0) (>= (+ (* 2047 1) (* (- 1) i ) (* 1 x ) ) 0) (>= (+ (* 1024 1) (* 1 x ) ) 0) (>= (+ (* 1 i s_1 ) (* 1 m s_2 ) (* 1 n s_3 ) (* 1 s_0 ) (* 1 s_4 x ) ) 0) ) (>= (+ (* 1 i s_1 ) (* 1 m s_2 ) (* 1 n s_3 ) (* 1 s_0 ) (* 1 s_1 ) (* 1 s_4 ) (* 1 s_4 x ) ) 0) )))
(assert (forall ((x Real) (i Real) (m Real) (n Real) ) (=> (and (>= (+ (* (- 1) 1) (* 1 n ) (* (- 1) x ) ) 0) (>= (+ (* 1023 1) (* (- 1) n ) ) 0) (>= (+ (* 1023 1) (* (- 1) m ) ) 0) (>= (+ (* 1023 1) (* (- 1) x ) ) 0) (>= (+ (* 2047 1) (* (- 1) i ) (* 1 n ) ) 0) (>= (+ (* 1024 1) (* 1 n ) ) 0) (>= (+ (* 1024 1) (* 1 m ) ) 0) (>= (+ (* 1024 1) (* 1 i ) ) 0) (>= (+ (* 2047 1) (* (- 1) i ) (* 1 x ) ) 0) (>= (+ (* 1024 1) (* 1 x ) ) 0) (>= (+ (* 1 i s_1 ) (* 1 m s_2 ) (* 1 n s_3 ) (* 1 s_0 ) (* 1 s_4 x ) ) 0) ) (>= (+ (* 1 c_0 ) (* 1 c_1 ) (* 1 c_1 i ) (* 1 c_2 m ) (* 1 c_3 n ) (* 1 c_4 ) (* 1 c_4 x ) ) 0) )))
(assert (forall ((x Real) (i Real) (m Real) (n Real) ) (=> (and (>= (+ (* (- 1) 1) (* 1 n ) (* (- 1) x ) ) 0) (>= (+ (* 1023 1) (* (- 1) n ) ) 0) (>= (+ (* 1023 1) (* (- 1) m ) ) 0) (>= (+ (* 1023 1) (* (- 1) x ) ) 0) (>= (+ (* 2047 1) (* (- 1) i ) (* 1 n ) ) 0) (>= (+ (* 1024 1) (* 1 n ) ) 0) (>= (+ (* 1024 1) (* 1 m ) ) 0) (>= (+ (* 1024 1) (* 1 i ) ) 0) (>= (+ (* 2047 1) (* (- 1) i ) (* 1 x ) ) 0) (>= (+ (* 1024 1) (* 1 x ) ) 0) (>= (+ (* 1 i s_1 ) (* 1 m s_2 ) (* 1 n s_3 ) (* 1 s_0 ) (* 1 s_4 x ) ) 0) ) (>= (+ (* (- 1) 1) (* (- 1) c_1 ) (* (- 1) c_4 ) ) 0) )))
(assert (forall ((x Real) (i Real) (m Real) (n Real) ) (=> (and (>= (+ (* (- 1) n ) (* 1 x ) ) 0) (>= (+ (* 1023 1) (* (- 1) n ) ) 0) (>= (+ (* 1023 1) (* (- 1) m ) ) 0) (>= (+ (* 1023 1) (* (- 1) x ) ) 0) (>= (+ (* 2047 1) (* (- 1) i ) (* 1 n ) ) 0) (>= (+ (* 1024 1) (* 1 n ) ) 0) (>= (+ (* 1024 1) (* 1 m ) ) 0) (>= (+ (* 1024 1) (* 1 i ) ) 0) (>= (+ (* 2047 1) (* (- 1) i ) (* 1 x ) ) 0) (>= (+ (* 1024 1) (* 1 x ) ) 0) (>= (+ (* 1 i s_1 ) (* 1 m s_2 ) (* 1 n s_3 ) (* 1 s_0 ) (* 1 s_4 x ) ) 0) ) (>= (+ (* 1 i s_6 ) (* 1 m s_7 ) (* 1 n s_8 ) (* 1 s_5 ) (* 1 s_9 x ) ) 0) )))
(assert (forall ((x Real) (i Real) (m Real) (n Real) ) (=> (and (>= (+ (* (- 1) n ) (* 1 x ) ) 0) (>= (+ (* 1023 1) (* (- 1) n ) ) 0) (>= (+ (* 1023 1) (* (- 1) m ) ) 0) (>= (+ (* 1023 1) (* (- 1) x ) ) 0) (>= (+ (* 2047 1) (* (- 1) i ) (* 1 n ) ) 0) (>= (+ (* 1024 1) (* 1 n ) ) 0) (>= (+ (* 1024 1) (* 1 m ) ) 0) (>= (+ (* 1024 1) (* 1 i ) ) 0) (>= (+ (* 2047 1) (* (- 1) i ) (* 1 x ) ) 0) (>= (+ (* 1024 1) (* 1 x ) ) 0) (>= (+ (* 1 i s_1 ) (* 1 m s_2 ) (* 1 n s_3 ) (* 1 s_0 ) (* 1 s_4 x ) ) 0) ) (>= (+ (* 1 c_5 ) (* 1 c_6 i ) (* 1 c_7 m ) (* 1 c_8 n ) (* 1 c_9 x ) ) 0) )))
(assert (forall ((x Real) (i Real) (m Real) (n Real) ) (=> (and (>= (+ (* (- 1) n ) (* 1 x ) ) 0) (>= (+ (* 1023 1) (* (- 1) n ) ) 0) (>= (+ (* 1023 1) (* (- 1) m ) ) 0) (>= (+ (* 1023 1) (* (- 1) x ) ) 0) (>= (+ (* 2047 1) (* (- 1) i ) (* 1 n ) ) 0) (>= (+ (* 1024 1) (* 1 n ) ) 0) (>= (+ (* 1024 1) (* 1 m ) ) 0) (>= (+ (* 1024 1) (* 1 i ) ) 0) (>= (+ (* 2047 1) (* (- 1) i ) (* 1 x ) ) 0) (>= (+ (* 1024 1) (* 1 x ) ) 0) (>= (+ (* 1 i s_1 ) (* 1 m s_2 ) (* 1 n s_3 ) (* 1 s_0 ) (* 1 s_4 x ) ) 0) ) (>= (+ (* (- 1) 1) (* 1 c_0 ) (* 1 c_1 i ) (* 1 c_2 m ) (* 1 c_3 n ) (* 1 c_4 x ) (* (- 1) c_5 ) (* (- 1) c_6 i ) (* (- 1) c_7 m ) (* (- 1) c_8 n ) (* (- 1) c_9 x ) ) 0) )))
(assert (forall ((x Real) (i Real) (m Real) (n Real) ) (=> (and (>= (+ (* (- 1) 1) (* 1 m ) (* (- 1) x ) ) 0) (>= (+ (* 1023 1) (* (- 1) x ) ) 0) (>= (+ (* 3071 1) (* (- 1) i ) (* 1 m ) (* 1 n ) ) 0) (>= (+ (* 1024 1) (* 1 n ) ) 0) (>= (+ (* 1024 1) (* 1 m ) ) 0) (>= (+ (* 1024 1) (* 1 i ) ) 0) (>= (+ (* 2047 1) (* (- 1) i ) (* 1 x ) ) 0) (>= (+ (* (- 1) n ) (* 1 x ) ) 0) (>= (+ (* 1023 1) (* (- 1) m ) ) 0) (>= (+ (* 1 i s_6 ) (* 1 m s_7 ) (* 1 n s_8 ) (* 1 s_5 ) (* 1 s_9 x ) ) 0) ) (>= (+ (* 1 i s_6 ) (* 1 m s_7 ) (* 1 n s_8 ) (* 1 s_5 ) (* 1 s_6 ) (* 1 s_9 ) (* 1 s_9 x ) ) 0) )))
(assert (forall ((x Real) (i Real) (m Real) (n Real) ) (=> (and (>= (+ (* (- 1) 1) (* 1 m ) (* (- 1) x ) ) 0) (>= (+ (* 1023 1) (* (- 1) x ) ) 0) (>= (+ (* 3071 1) (* (- 1) i ) (* 1 m ) (* 1 n ) ) 0) (>= (+ (* 1024 1) (* 1 n ) ) 0) (>= (+ (* 1024 1) (* 1 m ) ) 0) (>= (+ (* 1024 1) (* 1 i ) ) 0) (>= (+ (* 2047 1) (* (- 1) i ) (* 1 x ) ) 0) (>= (+ (* (- 1) n ) (* 1 x ) ) 0) (>= (+ (* 1023 1) (* (- 1) m ) ) 0) (>= (+ (* 1 i s_6 ) (* 1 m s_7 ) (* 1 n s_8 ) (* 1 s_5 ) (* 1 s_9 x ) ) 0) ) (>= (+ (* 1 c_5 ) (* 1 c_6 ) (* 1 c_6 i ) (* 1 c_7 m ) (* 1 c_8 n ) (* 1 c_9 ) (* 1 c_9 x ) ) 0) )))
(assert (forall ((x Real) (i Real) (m Real) (n Real) ) (=> (and (>= (+ (* (- 1) 1) (* 1 m ) (* (- 1) x ) ) 0) (>= (+ (* 1023 1) (* (- 1) x ) ) 0) (>= (+ (* 3071 1) (* (- 1) i ) (* 1 m ) (* 1 n ) ) 0) (>= (+ (* 1024 1) (* 1 n ) ) 0) (>= (+ (* 1024 1) (* 1 m ) ) 0) (>= (+ (* 1024 1) (* 1 i ) ) 0) (>= (+ (* 2047 1) (* (- 1) i ) (* 1 x ) ) 0) (>= (+ (* (- 1) n ) (* 1 x ) ) 0) (>= (+ (* 1023 1) (* (- 1) m ) ) 0) (>= (+ (* 1 i s_6 ) (* 1 m s_7 ) (* 1 n s_8 ) (* 1 s_5 ) (* 1 s_9 x ) ) 0) ) (>= (+ (* (- 1) 1) (* (- 1) c_6 ) (* (- 1) c_9 ) ) 0) )))
(assert (forall ((x Real) (i Real) (m Real) (n Real) ) (=> (and (>= (+ (* (- 1) m ) (* 1 x ) ) 0) (>= (+ (* 1023 1) (* (- 1) x ) ) 0) (>= (+ (* 3071 1) (* (- 1) i ) (* 1 m ) (* 1 n ) ) 0) (>= (+ (* 1024 1) (* 1 n ) ) 0) (>= (+ (* 1024 1) (* 1 m ) ) 0) (>= (+ (* 1024 1) (* 1 i ) ) 0) (>= (+ (* 2047 1) (* (- 1) i ) (* 1 x ) ) 0) (>= (+ (* (- 1) n ) (* 1 x ) ) 0) (>= (+ (* 1023 1) (* (- 1) m ) ) 0) (>= (+ (* 1 i s_6 ) (* 1 m s_7 ) (* 1 n s_8 ) (* 1 s_5 ) (* 1 s_9 x ) ) 0) ) (>= (+ (* 1 i s_11 ) (* 1 m s_12 ) (* 1 n s_13 ) (* 1 s_10 ) (* 1 s_14 x ) ) 0) )))
(assert (forall ((x Real) (i Real) (m Real) (n Real) ) (=> (and (>= (+ (* (- 1) m ) (* 1 x ) ) 0) (>= (+ (* 1023 1) (* (- 1) x ) ) 0) (>= (+ (* 3071 1) (* (- 1) i ) (* 1 m ) (* 1 n ) ) 0) (>= (+ (* 1024 1) (* 1 n ) ) 0) (>= (+ (* 1024 1) (* 1 m ) ) 0) (>= (+ (* 1024 1) (* 1 i ) ) 0) (>= (+ (* 2047 1) (* (- 1) i ) (* 1 x ) ) 0) (>= (+ (* (- 1) n ) (* 1 x ) ) 0) (>= (+ (* 1023 1) (* (- 1) m ) ) 0) (>= (+ (* 1 i s_6 ) (* 1 m s_7 ) (* 1 n s_8 ) (* 1 s_5 ) (* 1 s_9 x ) ) 0) ) (>= (+ (* 1 c_10 ) (* 1 c_11 i ) (* 1 c_12 m ) (* 1 c_13 n ) (* 1 c_14 x ) ) 0) )))

(check-sat)
(get-model)
